
Gurobi 11.0.2 (linux64) logging started Tue 03 Dec 2024 09:04:47 AM CET

Set parameter LogFile to value "./res/knapPI_11_50_1000/knapPI_11_50_1000_35/grb_dom.log"
Set parameter Presolve to value 0
Set parameter Aggregate to value 0
Set parameter Heuristics to value 0
Set parameter LPWarmStart to value 0
Set parameter NLPHeur to value 0
Set parameter PreDepRow to value 0
Set parameter PreDual to value 0
Set parameter RINS to value 0
Set parameter Symmetry to value 0
Set parameter NodeLimit to value 1
Set parameter Threads to value 1

Gurobi 11.0.2 (linux64) logging started Tue 03 Dec 2024 09:04:51 AM CET

Set parameter LogFile to value "./res/knapPI_11_50_1000/knapPI_11_50_1000_35/grb_dom.log"
Set parameter NLPHeur to value 0
Set parameter LPWarmStart to value 0
Set parameter PreDepRow to value 0
Set parameter Symmetry to value 0
Set parameter Presolve to value 0
Gurobi Optimizer version 11.0.2 build v11.0.2rc0 (linux64 - "Pop!_OS 20.04 LTS")

CPU model: Intel(R) Core(TM) i7-8650U CPU @ 1.90GHz, instruction set [SSE2|AVX|AVX2]
Thread count: 4 physical cores, 4 logical processors, using up to 1 threads

Optimize a model with 25055 rows, 50 columns and 583222 nonzeros
Model fingerprint: 0xd9099ee2
Variable types: 0 continuous, 50 integer (50 binary)
Coefficient statistics:
  Matrix range     [1e+00, 6e+02]
  Objective range  [1e+02, 2e+03]
  Bounds range     [0e+00, 0e+00]
  RHS range        [4e+03, 4e+03]
Variable types: 0 continuous, 50 integer (50 binary)

Root relaxation: objective 1.654016e+04, 27 iterations, 0.25 seconds (0.08 work units)

    Nodes    |    Current Node    |     Objective Bounds      |     Work
 Expl Unexpl |  Obj  Depth IntInf | Incumbent    BestBd   Gap | It/Node Time

     0     0 16540.1600    0    1          - 16540.1600      -     -    0s
     0     0 16540.1600    0    2          - 16540.1600      -     -    1s
     0     0 16540.1600    0    2          - 16540.1600      -     -    1s
     0     0 16540.1600    0    2          - 16540.1600      -     -    2s
     0     0 16540.1600    0    2          - 16540.1600      -     -    2s
*    0     0               0    16464.000000 16464.0000  0.00%     -    4s

Cutting planes:
  Cover: 2
  MIR: 1

Explored 1 nodes (37 simplex iterations) in 4.03 seconds (2.40 work units)
Thread count was 1 (of 4 available processors)

Solution count 1: 16464 

Optimal solution found (tolerance 1.00e-04)
Best objective 1.646400000000e+04, best bound 1.646400000000e+04, gap 0.0000%

User-callback calls 2177, time in user-callback 0.01 sec
opt = true
obj = 16464.0
nb_dom_cuts = 25054
solved_time = 4.0348
opt_val = 16464.0
